NAME: ch130.heu.tour
TYPE: TOUR
COMMENT: Heuristic tour (Lin-Kernighan), length 6194.84
DIMENSION: 130
TOUR_SECTION
1
127
107
104
43
110
89
94
77
103
81
87
12
79
95
116
24
29
15
100
19
27
31
34
17
54
35
4
93
37
22
47
40
23
96
13
67
14
10
102
6
55
122
44
42
51
60
120
53
49
58
106
38
92
72
91
99
73
74
75
52
65
56
9
57
82
101
123
111
119
84
36
32
113
25
48
98
68
63
70
97
7
26
88
86
69
64
124
129
61
109
76
11
5
45
16
128
105
62
28
115
112
117
83
3
114
108
8
126
30
59
90
125
85
66
78
121
33
21
18
46
80
20
118
2
50
130
71
39
41
-1
EOF
